3 100 1714
7 6 8 7 9 6 6 3 8 8
4 3 3
4 3 3 4
3 5 6
3 7 7
0 40.0 50.0 0.0 0.0 0 240
2 25.0 85.0 10.0 20.0 130 190 45 0 1 0 0 0 0 0 0 0 0
3 22.0 75.0 10.0 30.0 35 95 49 0 0 0 1 1 0 1 1 1 0
4 22.0 85.0 10.0 10.0 94 154 88 0 0 1 0 0 1 1 1 0 1
5 20.0 80.0 10.0 40.0 126 186 82 1 0 0 1 0 0 0 0 0 1
6 20.0 85.0 10.0 20.0 40 100 73 1 1 0 0 0 0 0 0 0 0
7 18.0 75.0 10.0 20.0 80 140 97 0 1 1 1 0 0 0 0 0 0
8 15.0 75.0 10.0 20.0 64 124 51 0 1 1 0 0 0 0 1 0 0
9 15.0 80.0 10.0 10.0 76 136 96 0 0 0 0 0 0 1 0 1 0
10 10.0 35.0 10.0 20.0 76 136 10 0 0 0 0 0 0 0 0 1 1
11 10.0 40.0 10.0 30.0 104 164 87 0 1 0 0 0 0 0 0 1 0
12 8.0 40.0 10.0 40.0 44 104 28 0 0 0 0 0 0 0 0 0 1
13 8.0 45.0 10.0 20.0 49 109 86 0 0 0 0 0 0 0 0 1 0
14 5.0 35.0 10.0 10.0 127 187 71 0 0 1 0 1 0 0 0 0 0
15 5.0 45.0 10.0 10.0 35 95 34 0 0 0 0 1 1 0 0 0 0
16 2.0 40.0 10.0 20.0 43 103 62 0 0 0 0 1 0 1 0 0 0
17 0.0 40.0 10.0 20.0 57 117 22 0 0 0 0 0 1 0 0 0 0
18 0.0 45.0 10.0 20.0 129 189 35 0 0 1 0 0 1 0 0 0 1
19 44.0 5.0 10.0 20.0 72 132 37 0 0 0 0 0 0 0 0 0 1
20 42.0 10.0 10.0 40.0 57 117 69 0 0 0 1 0 0 1 0 1 0
21 42.0 15.0 10.0 10.0 107 167 99 0 0 1 0 0 0 0 0 0 0
22 40.0 5.0 10.0 10.0 52 112 88 0 0 0 0 0 1 0 0 0 1
23 40.0 15.0 10.0 40.0 77 137 79 0 0 0 0 0 1 0 0 0 0
24 38.0 5.0 10.0 30.0 50 110 55 0 1 0 1 0 0 1 0 0 0
25 38.0 15.0 10.0 10.0 133 193 47 0 0 1 1 0 1 0 0 1 0
26 35.0 5.0 10.0 20.0 124 184 74 0 0 1 0 0 0 1 0 0 0
27 95.0 30.0 10.0 30.0 100 160 35 0 0 0 1 0 0 0 0 1 0
28 95.0 35.0 10.0 20.0 57 117 29 0 0 0 0 0 1 0 0 0 0
29 92.0 30.0 10.0 10.0 55 115 57 0 1 0 0 1 0 0 0 0 0
30 90.0 35.0 10.0 10.0 52 112 0 1 1 0 0 0 0 1 0 0 1
31 88.0 30.0 10.0 10.0 59 119 24 0 1 0 0 1 0 1 1 0 0
32 88.0 35.0 10.0 20.0 50 110 13 0 1 0 1 0 0 0 0 1 0
33 87.0 30.0 10.0 10.0 116 176 30 0 0 0 1 0 0 0 0 0 0
34 85.0 25.0 10.0 10.0 51 111 3 0 0 0 0 1 0 1 0 0 0
35 85.0 35.0 10.0 30.0 96 156 70 0 0 0 0 0 0 0 0 0 1
36 67.0 85.0 10.0 20.0 124 184 52 0 0 0 0 0 0 1 0 0 0
37 65.0 85.0 10.0 40.0 43 103 89 0 0 0 0 0 0 0 1 1 0
38 65.0 82.0 10.0 10.0 109 169 28 1 0 0 0 0 0 0 0 1 0
39 62.0 80.0 10.0 30.0 60 120 45 1 0 0 1 1 0 0 0 0 1
40 60.0 80.0 10.0 10.0 36 96 90 0 1 0 0 1 0 0 0 0 1
41 60.0 85.0 10.0 30.0 70 130 77 0 0 1 0 0 0 1 0 0 0
42 58.0 75.0 10.0 20.0 77 137 21 1 0 1 0 1 1 0 0 0 0
43 55.0 80.0 10.0 10.0 33 93 6 0 0 0 0 0 0 1 0 0 0
44 55.0 85.0 10.0 20.0 113 173 43 0 0 0 0 0 0 0 1 0 1
45 55.0 82.0 10.0 10.0 49 109 72 0 0 0 0 0 1 0 0 0 0
46 20.0 82.0 10.0 10.0 37 97 74 0 1 0 0 0 1 0 0 0 0
47 18.0 80.0 10.0 10.0 98 158 51 1 0 0 0 0 0 0 0 0 0
48 2.0 45.0 10.0 10.0 38 98 14 0 1 0 0 0 1 0 0 0 1
49 42.0 5.0 10.0 10.0 124 184 69 0 0 0 0 0 0 0 0 1 0
50 42.0 12.0 10.0 10.0 89 149 98 0 0 1 0 0 0 1 0 0 0
51 72.0 35.0 10.0 30.0 101 161 15 0 0 0 1 0 0 1 0 0 1
52 55.0 20.0 10.0 19.0 68 128 73 0 0 0 0 0 1 0 0 0 0
53 25.0 30.0 10.0 3.0 37 97 18 0 1 1 0 0 0 0 1 0 0
54 20.0 50.0 10.0 5.0 76 136 28 0 0 0 0 0 1 0 0 1 0
55 55.0 60.0 10.0 16.0 124 184 20 0 0 0 0 1 1 0 0 1 0
56 30.0 60.0 10.0 16.0 125 185 8 0 0 0 1 0 1 0 0 0 0
57 50.0 35.0 10.0 19.0 115 175 28 0 0 1 0 1 0 0 0 1 0
58 30.0 25.0 10.0 23.0 81 141 50 1 1 0 0 0 0 1 0 0 1
59 15.0 10.0 10.0 20.0 122 182 6 0 0 1 0 1 0 0 0 0 0
60 10.0 20.0 10.0 19.0 42 102 91 1 0 0 1 1 0 1 1 0 0
61 15.0 60.0 10.0 17.0 140 200 33 0 0 1 0 0 0 0 0 0 1
62 45.0 65.0 10.0 9.0 51 111 48 0 0 0 0 0 1 0 0 0 1
63 65.0 35.0 10.0 3.0 37 97 13 0 0 0 0 0 1 0 0 0 0
64 65.0 20.0 10.0 6.0 39 99 63 0 0 0 0 0 0 0 1 0 0
65 45.0 30.0 10.0 17.0 38 98 29 1 1 0 0 0 0 0 0 0 0
66 35.0 40.0 10.0 16.0 11 71 59 0 0 1 0 0 0 0 0 0 0
67 41.0 37.0 10.0 16.0 118 178 34 0 0 0 1 1 0 0 0 0 0
68 64.0 42.0 10.0 9.0 55 115 53 0 0 0 0 1 0 1 0 0 1
69 40.0 60.0 10.0 21.0 129 189 77 0 0 0 0 1 0 0 0 0 0
70 31.0 52.0 10.0 27.0 26 86 50 0 0 0 0 0 1 0 0 0 0
71 35.0 69.0 10.0 23.0 150 210 3 1 0 0 0 0 1 0 0 0 1
72 65.0 55.0 10.0 14.0 50 110 38 0 0 0 0 0 1 0 0 0 0
73 63.0 65.0 10.0 8.0 27 87 49 1 1 0 0 0 0 0 0 0 0
74 2.0 60.0 10.0 5.0 62 122 11 0 0 0 0 0 0 1 0 0 0
75 20.0 20.0 10.0 8.0 126 186 89 1 1 0 1 0 0 0 0 0 0
76 5.0 5.0 10.0 16.0 59 119 75 0 0 1 1 0 0 0 0 0 0
77 60.0 12.0 10.0 31.0 60 120 95 1 0 0 1 0 1 0 0 0 1
78 23.0 3.0 10.0 7.0 120 180 99 1 0 0 0 0 0 0 1 0 0
79 8.0 56.0 10.0 27.0 75 135 40 0 0 0 0 0 0 0 1 0 1
80 6.0 68.0 10.0 30.0 74 134 84 0 0 0 0 0 0 0 0 1 0
81 47.0 47.0 10.0 13.0 162 222 57 0 1 1 1 0 1 1 0 1 0
82 49.0 58.0 10.0 10.0 71 131 36 0 0 1 0 0 0 1 0 0 1
83 27.0 43.0 10.0 9.0 27 87 74 0 1 0 0 0 0 0 0 0 0
84 37.0 31.0 10.0 14.0 20 80 48 1 0 0 0 1 0 0 0 0 0
85 57.0 29.0 10.0 18.0 81 141 64 1 0 0 1 0 0 1 0 0 0
86 63.0 23.0 10.0 2.0 72 132 76 1 1 0 0 0 0 1 0 0 0
87 21.0 24.0 10.0 28.0 72 132 64 0 0 0 1 0 0 0 0 0 0
88 12.0 24.0 10.0 13.0 75 135 76 0 0 0 0 0 1 0 0 0 0
89 24.0 58.0 10.0 19.0 52 112 80 1 0 1 0 0 1 1 0 0 0
90 67.0 5.0 10.0 25.0 117 177 54 1 1 0 0 0 0 0 0 0 1
91 37.0 47.0 10.0 6.0 71 131 74 0 1 1 1 0 1 0 0 1 0
92 49.0 42.0 10.0 13.0 152 212 70 0 0 0 0 0 0 0 1 0 0
93 53.0 43.0 10.0 14.0 14 74 25 0 0 0 1 0 0 0 0 0 0
94 61.0 52.0 10.0 3.0 148 208 52 0 0 0 1 0 0 1 0 1 0
95 57.0 48.0 10.0 23.0 80 140 6 0 0 0 1 1 0 0 1 0 1
96 56.0 37.0 10.0 6.0 20 80 18 0 0 0 0 0 1 0 0 0 0
97 55.0 54.0 10.0 26.0 117 177 55 0 0 0 1 1 0 0 0 0 1
98 4.0 18.0 10.0 35.0 105 165 40 0 0 1 0 1 1 0 0 0 0
99 26.0 52.0 10.0 9.0 31 91 69 1 0 1 1 0 0 0 0 0 1
100 26.0 35.0 10.0 15.0 62 122 79 1 0 0 0 0 0 1 0 0 0
101 31.0 67.0 10.0 3.0 150 210 54 0 0 1 0 0 1 1 0 1 0